(set-logic QF_S)
(declare-fun V5 () String )
(declare-fun V10 () String )
(declare-fun V6 () String )
(declare-fun V14 () String )
(declare-fun V24 () String )
(declare-fun V21 () String )
(declare-fun V18 () String )
(declare-fun V9 () String )
(declare-fun V25 () String )
(declare-fun V20 () String )
(declare-fun V15 () String )
(declare-fun V11 () String )
(declare-fun V26 () String )
(declare-fun V8 () String )
(declare-fun V13 () String )
(declare-fun V23 () String )
(declare-fun V19 () String )
(declare-fun V1 () String )
(declare-fun V22 () String )
(declare-fun V12 () String )
(declare-fun V17 () String )
(declare-fun V27 () String )
(assert (= (str.++ V13 V14 ) (str.++ V11 V12 ) ) )
(assert (= (str.++ V13 V14 ) (str.++ "//" V9 ) ) )
(assert (= (str.++ V13 V14 ) (str.++ (str.++ V22 "/" ) V23 ) ) )
(assert (= (str.++ V13 V14 ) (str.++ (str.++ V17 V18 ) V19 ) ) )
(assert (= (str.++ V13 V14 ) (str.++ (str.++ (str.++ V15 V24 ) "/" ) V25 ) ) )
(assert (= (str.++ V13 V14 ) (str.++ (str.++ (str.++ V10 V5 ) "?" ) V6 ) ) )
(assert (= (str.++ (str.++ V24 "/" ) V25 ) (str.++ (str.++ V26 "/" ) V27 ) ) )
(assert (= (str.++ (str.++ V20 ":" ) V21 ) (str.++ (str.++ V1 V13 ) V14 ) ) )
(assert (= (str.++ (str.++ V20 ":" ) V21 ) (str.++ "http" V8 ) ) )
( check-sat )
